c generated from the graph graph.txt
c for the 2COL problem
p cnf 20 50
1 2 0
-1 -2 0
-1 -3 0
-2 -4 0
-1 -9 0
-2 -10 0
-1 -15 0
-2 -16 0
3 4 0
-3 -4 0
-3 -5 0
-4 -6 0
-3 -11 0
-4 -12 0
5 6 0
-5 -6 0
-5 -7 0
-6 -8 0
-5 -11 0
-6 -12 0
7 8 0
-7 -8 0
-7 -9 0
-8 -10 0
-7 -13 0
-8 -14 0
9 10 0
-9 -10 0
-9 -17 0
-10 -18 0
11 12 0
-11 -12 0
-11 -13 0
-12 -14 0
-11 -17 0
-12 -18 0
13 14 0
-13 -14 0
-13 -15 0
-14 -16 0
15 16 0
-15 -16 0
-15 -19 0
-16 -20 0
17 18 0
-17 -18 0
-17 -19 0
-18 -20 0
19 20 0
-19 -20 0
